c colouring generated by benchmark framework
p edge 1000 246708
v 1 83
v 2 55
v 3 69
v 4 37
v 5 79
v 6 25
v 7 72
v 8 102
v 9 31
v 10 2
v 11 89
v 12 83
v 13 63
v 14 117
v 15 19
v 16 43
v 17 74
v 18 27
v 19 8
v 20 98
v 21 42
v 22 55
v 23 62
v 24 20
v 25 5
v 26 81
v 27 90
v 28 95
v 29 103
v 30 20
v 31 31
v 32 35
v 33 34
v 34 131
v 35 93
v 36 59
v 37 71
v 38 89
v 39 25
v 40 84
v 41 40
v 42 94
v 43 64
v 44 49
v 45 35
v 46 68
v 47 113
v 48 40
v 49 43
v 50 61
v 51 15
v 52 81
v 53 76
v 54 101
v 55 64
v 56 45
v 57 131
v 58 25
v 59 7
v 60 32
v 61 109
v 62 12
v 63 35
v 64 93
v 65 20
v 66 73
v 67 2
v 68 62
v 69 78
v 70 79
v 71 92
v 72 34
v 73 102
v 74 32
v 75 62
v 76 28
v 77 38
v 78 59
v 79 37
v 80 98
v 81 50
v 82 122
v 83 38
v 84 76
v 85 77
v 86 116
v 87 107
v 88 34
v 89 55
v 90 72
v 91 57
v 92 136
v 93 96
v 94 118
v 95 63
v 96 64
v 97 120
v 98 15
v 99 80
v 100 80
v 101 17
v 102 100
v 103 11
v 104 1
v 105 66
v 106 86
v 107 102
v 108 75
v 109 68
v 110 17
v 111 73
v 112 8
v 113 17
v 114 71
v 115 112
v 116 31
v 117 7
v 118 99
v 119 60
v 120 1
v 121 10
v 122 36
v 123 116
v 124 82
v 125 23
v 126 5
v 127 57
v 128 108
v 129 127
v 130 87
v 131 4
v 132 28
v 133 35
v 134 21
v 135 58
v 136 24
v 137 121
v 138 43
v 139 122
v 140 65
v 141 12
v 142 36
v 143 12
v 144 66
v 145 28
v 146 121
v 147 43
v 148 27
v 149 80
v 150 93
v 151 10
v 152 61
v 153 67
v 154 115
v 155 34
v 156 60
v 157 135
v 158 122
v 159 98
v 160 121
v 161 52
v 162 82
v 163 77
v 164 40
v 165 79
v 166 12
v 167 104
v 168 74
v 169 129
v 170 110
v 171 69
v 172 65
v 173 101
v 174 67
v 175 89
v 176 41
v 177 15
v 178 99
v 179 105
v 180 33
v 181 24
v 182 87
v 183 128
v 184 95
v 185 79
v 186 11
v 187 5
v 188 115
v 189 39
v 190 23
v 191 137
v 192 117
v 193 99
v 194 26
v 195 75
v 196 53
v 197 60
v 198 71
v 199 36
v 200 0
v 201 19
v 202 76
v 203 69
v 204 54
v 205 103
v 206 14
v 207 91
v 208 111
v 209 13
v 210 38
v 211 42
v 212 94
v 213 40
v 214 9
v 215 91
v 216 42
v 217 55
v 218 117
v 219 92
v 220 104
v 221 0
v 222 63
v 223 32
v 224 98
v 225 69
v 226 127
v 227 64
v 228 95
v 229 91
v 230 51
v 231 24
v 232 83
v 233 9
v 234 120
v 235 14
v 236 8
v 237 129
v 238 50
v 239 2
v 240 118
v 241 70
v 242 31
v 243 129
v 244 43
v 245 64
v 246 6
v 247 73
v 248 17
v 249 6
v 250 13
v 251 48
v 252 119
v 253 133
v 254 70
v 255 19
v 256 23
v 257 67
v 258 65
v 259 82
v 260 9
v 261 4
v 262 4
v 263 65
v 264 117
v 265 23
v 266 95
v 267 53
v 268 67
v 269 94
v 270 92
v 271 88
v 272 106
v 273 111
v 274 103
v 275 33
v 276 108
v 277 20
v 278 97
v 279 33
v 280 19
v 281 29
v 282 108
v 283 3
v 284 100
v 285 137
v 286 47
v 287 58
v 288 114
v 289 50
v 290 113
v 291 11
v 292 130
v 293 34
v 294 107
v 295 87
v 296 44
v 297 30
v 298 135
v 299 0
v 300 112
v 301 13
v 302 136
v 303 39
v 304 136
v 305 29
v 306 14
v 307 51
v 308 114
v 309 59
v 310 16
v 311 1
v 312 34
v 313 72
v 314 92
v 315 88
v 316 28
v 317 100
v 318 88
v 319 114
v 320 55
v 321 21
v 322 19
v 323 22
v 324 122
v 325 4
v 326 20
v 327 28
v 328 80
v 329 60
v 330 52
v 331 84
v 332 20
v 333 31
v 334 14
v 335 37
v 336 47
v 337 77
v 338 2
v 339 116
v 340 95
v 341 2
v 342 35
v 343 85
v 344 49
v 345 7
v 346 55
v 347 63
v 348 3
v 349 30
v 350 81
v 351 42
v 352 119
v 353 70
v 354 58
v 355 43
v 356 44
v 357 74
v 358 89
v 359 6
v 360 1
v 361 53
v 362 122
v 363 104
v 364 33
v 365 17
v 366 0
v 367 84
v 368 97
v 369 101
v 370 27
v 371 112
v 372 102
v 373 107
v 374 126
v 375 74
v 376 102
v 377 39
v 378 98
v 379 10
v 380 96
v 381 83
v 382 45
v 383 95
v 384 116
v 385 85
v 386 97
v 387 70
v 388 87
v 389 36
v 390 94
v 391 2
v 392 42
v 393 27
v 394 6
v 395 77
v 396 0
v 397 49
v 398 106
v 399 5
v 400 16
v 401 2
v 402 13
v 403 27
v 404 42
v 405 41
v 406 32
v 407 84
v 408 86
v 409 41
v 410 94
v 411 79
v 412 125
v 413 67
v 414 78
v 415 1
v 416 118
v 417 89
v 418 55
v 419 97
v 420 56
v 421 130
v 422 17
v 423 86
v 424 99
v 425 99
v 426 78
v 427 82
v 428 19
v 429 58
v 430 76
v 431 29
v 432 91
v 433 132
v 434 66
v 435 69
v 436 89
v 437 14
v 438 104
v 439 64
v 440 78
v 441 118
v 442 86
v 443 104
v 444 127
v 445 57
v 446 39
v 447 97
v 448 38
v 449 48
v 450 63
v 451 74
v 452 1
v 453 114
v 454 21
v 455 97
v 456 1
v 457 78
v 458 128
v 459 29
v 460 22
v 461 108
v 462 108
v 463 82
v 464 118
v 465 24
v 466 68
v 467 5
v 468 71
v 469 46
v 470 21
v 471 15
v 472 55
v 473 108
v 474 104
v 475 35
v 476 58
v 477 91
v 478 3
v 479 57
v 480 126
v 481 54
v 482 44
v 483 52
v 484 46
v 485 28
v 486 109
v 487 103
v 488 115
v 489 20
v 490 7
v 491 18
v 492 11
v 493 120
v 494 126
v 495 46
v 496 47
v 497 18
v 498 45
v 499 31
v 500 35
v 501 125
v 502 7
v 503 72
v 504 14
v 505 69
v 506 34
v 507 85
v 508 22
v 509 46
v 510 43
v 511 10
v 512 87
v 513 29
v 514 18
v 515 5
v 516 51
v 517 45
v 518 80
v 519 25
v 520 48
v 521 38
v 522 54
v 523 37
v 524 4
v 525 77
v 526 5
v 527 18
v 528 16
v 529 27
v 530 26
v 531 119
v 532 93
v 533 137
v 534 63
v 535 13
v 536 73
v 537 126
v 538 62
v 539 9
v 540 26
v 541 13
v 542 118
v 543 14
v 544 10
v 545 8
v 546 102
v 547 65
v 548 40
v 549 7
v 550 135
v 551 88
v 552 59
v 553 115
v 554 136
v 555 88
v 556 76
v 557 30
v 558 7
v 559 106
v 560 59
v 561 56
v 562 71
v 563 22
v 564 109
v 565 51
v 566 11
v 567 10
v 568 41
v 569 6
v 570 24
v 571 15
v 572 76
v 573 96
v 574 91
v 575 48
v 576 87
v 577 4
v 578 127
v 579 80
v 580 92
v 581 7
v 582 96
v 583 10
v 584 61
v 585 120
v 586 13
v 587 35
v 588 109
v 589 9
v 590 58
v 591 33
v 592 23
v 593 112
v 594 14
v 595 9
v 596 75
v 597 50
v 598 38
v 599 128
v 600 21
v 601 95
v 602 50
v 603 107
v 604 103
v 605 36
v 606 15
v 607 27
v 608 72
v 609 74
v 610 34
v 611 62
v 612 23
v 613 39
v 614 61
v 615 124
v 616 36
v 617 19
v 618 49
v 619 86
v 620 61
v 621 67
v 622 48
v 623 22
v 624 137
v 625 17
v 626 30
v 627 16
v 628 68
v 629 69
v 630 44
v 631 104
v 632 40
v 633 57
v 634 84
v 635 107
v 636 106
v 637 16
v 638 19
v 639 77
v 640 107
v 641 128
v 642 90
v 643 19
v 644 47
v 645 25
v 646 45
v 647 16
v 648 68
v 649 99
v 650 15
v 651 101
v 652 44
v 653 47
v 654 110
v 655 45
v 656 48
v 657 34
v 658 104
v 659 30
v 660 42
v 661 73
v 662 78
v 663 111
v 664 59
v 665 8
v 666 105
v 667 33
v 668 21
v 669 101
v 670 28
v 671 8
v 672 50
v 673 38
v 674 26
v 675 33
v 676 101
v 677 61
v 678 72
v 679 44
v 680 50
v 681 134
v 682 70
v 683 60
v 684 49
v 685 129
v 686 42
v 687 47
v 688 25
v 689 94
v 690 31
v 691 81
v 692 60
v 693 46
v 694 120
v 695 90
v 696 16
v 697 75
v 698 15
v 699 105
v 700 9
v 701 10
v 702 123
v 703 67
v 704 50
v 705 99
v 706 12
v 707 67
v 708 24
v 709 7
v 710 90
v 711 40
v 712 2
v 713 53
v 714 36
v 715 20
v 716 20
v 717 35
v 718 32
v 719 3
v 720 5
v 721 59
v 722 21
v 723 11
v 724 72
v 725 70
v 726 41
v 727 3
v 728 133
v 729 100
v 730 113
v 731 32
v 732 44
v 733 109
v 734 93
v 735 45
v 736 124
v 737 99
v 738 65
v 739 56
v 740 53
v 741 12
v 742 42
v 743 101
v 744 61
v 745 107
v 746 100
v 747 84
v 748 117
v 749 52
v 750 71
v 751 27
v 752 121
v 753 6
v 754 38
v 755 23
v 756 16
v 757 70
v 758 65
v 759 4
v 760 132
v 761 48
v 762 19
v 763 70
v 764 85
v 765 83
v 766 56
v 767 83
v 768 100
v 769 43
v 770 4
v 771 48
v 772 16
v 773 39
v 774 125
v 775 96
v 776 123
v 777 12
v 778 110
v 779 57
v 780 12
v 781 56
v 782 42
v 783 53
v 784 49
v 785 26
v 786 23
v 787 46
v 788 51
v 789 66
v 790 100
v 791 6
v 792 110
v 793 134
v 794 7
v 795 47
v 796 77
v 797 22
v 798 119
v 799 22
v 800 54
v 801 51
v 802 37
v 803 90
v 804 45
v 805 68
v 806 2
v 807 64
v 808 71
v 809 62
v 810 49
v 811 102
v 812 0
v 813 115
v 814 111
v 815 40
v 816 13
v 817 123
v 818 37
v 819 73
v 820 52
v 821 14
v 822 18
v 823 58
v 824 1
v 825 30
v 826 26
v 827 84
v 828 89
v 829 110
v 830 88
v 831 103
v 832 19
v 833 37
v 834 131
v 835 73
v 836 76
v 837 24
v 838 98
v 839 29
v 840 22
v 841 113
v 842 68
v 843 84
v 844 75
v 845 80
v 846 81
v 847 37
v 848 39
v 849 4
v 850 88
v 851 51
v 852 78
v 853 74
v 854 111
v 855 106
v 856 1
v 857 28
v 858 127
v 859 22
v 860 137
v 861 32
v 862 68
v 863 58
v 864 24
v 865 71
v 866 61
v 867 54
v 868 60
v 869 92
v 870 126
v 871 26
v 872 102
v 873 106
v 874 74
v 875 82
v 876 3
v 877 47
v 878 68
v 879 122
v 880 22
v 881 96
v 882 132
v 883 30
v 884 17
v 885 66
v 886 52
v 887 46
v 888 18
v 889 65
v 890 91
v 891 56
v 892 13
v 893 77
v 894 21
v 895 72
v 896 109
v 897 11
v 898 41
v 899 105
v 900 44
v 901 9
v 902 31
v 903 17
v 904 6
v 905 90
v 906 86
v 907 45
v 908 87
v 909 118
v 910 57
v 911 8
v 912 12
v 913 52
v 914 119
v 915 116
v 916 75
v 917 0
v 918 85
v 919 28
v 920 60
v 921 52
v 922 34
v 923 105
v 924 125
v 925 79
v 926 97
v 927 29
v 928 117
v 929 54
v 930 53
v 931 90
v 932 85
v 933 98
v 934 66
v 935 38
v 936 124
v 937 110
v 938 75
v 939 55
v 940 56
v 941 3
v 942 14
v 943 83
v 944 41
v 945 56
v 946 89
v 947 9
v 948 41
v 949 93
v 950 72
v 951 97
v 952 57
v 953 39
v 954 36
v 955 54
v 956 49
v 957 80
v 958 11
v 959 79
v 960 81
v 961 16
v 962 32
v 963 91
v 964 50
v 965 78
v 966 66
v 967 18
v 968 31
v 969 50
v 970 15
v 971 33
v 972 8
v 973 105
v 974 30
v 975 51
v 976 21
v 977 29
v 978 63
v 979 9
v 980 6
v 981 96
v 982 38
v 983 25
v 984 47
v 985 27
v 986 85
v 987 25
v 988 23
v 989 105
v 990 15
v 991 88
v 992 62
v 993 64
v 994 122
v 995 61
v 996 11
v 997 77
v 998 59
v 999 121
v 1000 63
